     Program PHONON v.6.7MaX starts on 23Nov2021 at 18:11:53

     K-points division:     npool     =       8
     R & G space division:  proc/nbgrp/npool/nimage =      28
     Waiting for input...
     Reading input from standard input
      Title line not specified: using 'default'.

     Reading xml data from directory:

     ./inse.save/
     Message from routine read_pp_mesh:
     mesh size missing, using the one in header
     Message from routine read_pp_mesh:
     mesh size missing, using the one in header

     IMPORTANT: XC functional enforced from input :
     Exchange-correlation= PBE
                           (   1   4   3   4   0   0   0)
     Any further DFT definition will be discarded
     Please, verify this is what you really want

     Reading collected, re-writing distributed wavefunctions

     Calculation of q =    0.0000000   0.0200000   0.0100000

     Subspace diagonalization in iterative solution of the eigenvalue problem:
     a serial algorithm will be used

     Title:
     default

     bravais-lattice index     =            4
     lattice parameter (alat)  =       7.7271  a.u.
     unit-cell volume          =    2383.8404 (a.u.)^3
     number of atoms/cell      =            4
     number of atomic types    =            2
     number of electrons       =        38.00
     number of Kohn-Sham states=           19
     kinetic-energy cutoff     =      70.0000  Ry
     charge density cutoff     =     280.0000  Ry
     Exchange-correlation= PBE
                           (   1   4   3   4   0   0   0)

     celldm(1)=   7.727128  celldm(2)=   0.000000  celldm(3)=   5.966124
     celldm(4)=   0.000000  celldm(5)=   0.000000  celldm(6)=   0.000000

     crystal axes: (cart. coord. in units of alat)
               a(1) = (   1.000000   0.000000   0.000000 )
               a(2) = (  -0.500000   0.866025   0.000000 )
               a(3) = (   0.000000   0.000000   5.966124 )

     reciprocal axes: (cart. coord. in units 2 pi/alat)
               b(1) = (  1.000000  0.577350  0.000000 )
               b(2) = (  0.000000  1.154701  0.000000 )
               b(3) = (  0.000000  0.000000  0.167613 )

     PseudoPot. # 1 for In read from file:
     ./In_ONCV_PBE-1.2.upf
     MD5 check sum: 2123f823f6143602c63cd302e3a0bdd6
     Pseudo is Norm-conserving, Zval = 13.0
     Generated using ONCVPSP code by D. R. Hamann
     Using radial grid of  602 points,  6 beta functions with:
                l(1) =   0
                l(2) =   0
                l(3) =   1
                l(4) =   1
                l(5) =   2
                l(6) =   2

     PseudoPot. # 2 for Se read from file:
     ./Se_ONCV_PBE-1.2.upf
     MD5 check sum: e78e48a4f5d8ce1f8dc76ec1271f249c
     Pseudo is Norm-conserving, Zval =  6.0
     Generated using ONCVPSP code by D. R. Hamann
     Using radial grid of  602 points,  6 beta functions with:
                l(1) =   0
                l(2) =   0
                l(3) =   1
                l(4) =   1
                l(5) =   2
                l(6) =   2

     atomic species   valence    mass     pseudopotential
        In            13.00   114.81800     In( 1.00)
        Se             6.00    78.96000     Se( 1.00)

     No symmetry found

   Cartesian axes

     site n.     atom                  positions (alat units)
         1           In  tau(   1) = (  -0.0000000   0.5773503   1.0573362  )
         2           In  tau(   2) = (  -0.0000000   0.5773503   1.7491693  )
         3           Se  tau(   3) = (   0.5000000   0.2886751   0.7452705  )
         4           Se  tau(   4) = (   0.5000000   0.2886751   2.0612351  )

     number of k points=   288

     Number of k-points >= 100: set verbosity='high' to print them.

     The potential is recalculated from file :
     ./_ph0/inse.save/charge-density

     Starting wfcs are    0 atomic +   19 random wfcs

     Band Structure Calculation
     Davidson diagonalization with overlap

     ethr =  2.63E-11,  avg # of iterations = 21.9

     End of band structure calculation

     Number of k-points >= 100: set verbosity='high' to print the bands.

     highest occupied level (ev):    -1.9267

     Writing output data file ./_ph0/inse.save/

     default

     bravais-lattice index     =            4
     lattice parameter (alat)  =       7.7271  a.u.
     unit-cell volume          =    2383.8404 (a.u.)^3
     number of atoms/cell      =            4
     number of atomic types    =            2
     kinetic-energy cut-off    =      70.0000  Ry
     charge density cut-off    =     280.0000  Ry
     convergence threshold     =      1.0E-21
     beta                      =       0.7000
     number of iterations used =            4
     Exchange-correlation= PBE
                           (   1   4   3   4   0   0   0)

     celldm(1)=    7.72713  celldm(2)=    0.00000  celldm(3)=    5.96612
     celldm(4)=    0.00000  celldm(5)=    0.00000  celldm(6)=    0.00000

     crystal axes: (cart. coord. in units of alat)
               a(1) = (  1.0000  0.0000  0.0000 )
               a(2) = ( -0.5000  0.8660  0.0000 )
               a(3) = (  0.0000  0.0000  5.9661 )

     reciprocal axes: (cart. coord. in units 2 pi/alat)
               b(1) = (  1.0000  0.5774  0.0000 )
               b(2) = (  0.0000  1.1547  0.0000 )
               b(3) = (  0.0000  0.0000  0.1676 )

     Atoms inside the unit cell:

     Cartesian axes

     site n.  atom      mass           positions (alat units)
        1     In 114.8180   tau(    1) = (   -0.00000    0.57735    1.05734  )
        2     In 114.8180   tau(    2) = (   -0.00000    0.57735    1.74917  )
        3     Se  78.9600   tau(    3) = (    0.50000    0.28868    0.74527  )
        4     Se  78.9600   tau(    4) = (    0.50000    0.28868    2.06124  )

     Computing dynamical matrix for
                    q = (   0.0000000   0.0200000   0.0100000 )

     No symmetry!

     G cutoff =  423.4815  (   6752 G-vectors)     FFT grid: ( 45, 45,250)
     number of k points=   288

     PseudoPot. # 1 for In read from file:
     ./In_ONCV_PBE-1.2.upf
     MD5 check sum: 2123f823f6143602c63cd302e3a0bdd6
     Pseudo is Norm-conserving, Zval = 13.0
     Generated using ONCVPSP code by D. R. Hamann
     Using radial grid of  602 points,  6 beta functions with:
                l(1) =   0
                l(2) =   0
                l(3) =   1
                l(4) =   1
                l(5) =   2
                l(6) =   2

     PseudoPot. # 2 for Se read from file:
     ./Se_ONCV_PBE-1.2.upf
     MD5 check sum: e78e48a4f5d8ce1f8dc76ec1271f249c
     Pseudo is Norm-conserving, Zval =  6.0
     Generated using ONCVPSP code by D. R. Hamann
     Using radial grid of  602 points,  6 beta functions with:
                l(1) =   0
                l(2) =   0
                l(3) =   1
                l(4) =   1
                l(5) =   2
                l(6) =   2

     Mode symmetry, C_1 (1)     point group:

     Atomic displacements:
     There are   12 irreducible representations

     Representation     1      1 modes -  To be done

[...]

     Representation    12      1 modes -  To be done

     Alpha used in Ewald sum =   2.6000

     Representation #   1 mode #   1

     Self-consistent Calculation

      thresh= 1.000E-02 alpha_mix =  0.700 |ddv_scf|^2 =  4.413E-07

[...]

     End of self-consistent calculation

     Convergence has been achieved

[...]

     Representation #  12 mode #  12

     Self-consistent Calculation

[...]

      thresh= 9.552E-12 alpha_mix =  0.700 |ddv_scf|^2 =  3.981E-22

     End of self-consistent calculation

     Convergence has been achieved

     Number of q in the star =    1
     List of q in the star:
          1   0.000000000   0.020000000   0.010000000
     In addition there is the -q list:
          1   0.000000000  -0.020000000  -0.010000000

          Effective charges (d P / du) in cartesian axis

           atom      1   In
      Px  (     0.00000    -0.00000    -0.00052    -0.01301     0.00034    -0.00075 )
      Py  (     0.00000     0.00000     0.00000     0.00000     0.00000     0.00000 )
      Pz  (     0.00000     0.00000     0.00000     0.00000     0.00000     0.00000 )
           atom      2   In
      Px  (    -0.00000     0.00000    -0.00010    -0.01302    -0.00034    -0.00074 )
      Py  (     0.00000     0.00000     0.00000     0.00000     0.00000     0.00000 )
      Pz  (     0.00000     0.00000     0.00000     0.00000     0.00000     0.00000 )
           atom      3   Se
      Px  (     0.00000     0.00000     0.00044     0.01292     0.00003     0.00070 )
      Py  (     0.00000     0.00000     0.00000     0.00000     0.00000     0.00000 )
      Pz  (     0.00000     0.00000     0.00000     0.00000     0.00000     0.00000 )
           atom      4   Se
      Px  (    -0.00000    -0.00000    -0.00057     0.01291    -0.00003     0.00070 )
      Py  (     0.00000     0.00000     0.00000     0.00000     0.00000     0.00000 )
      Pz  (     0.00000     0.00000     0.00000     0.00000     0.00000     0.00000 )

     Diagonalizing the dynamical matrix

     q = (    0.000000000   0.020000000   0.010000000 )

     freq (    1) =       0.167478 [THz] =       5.586453 [cm-1]
     freq (    2) =       0.188916 [THz] =       6.301546 [cm-1]
     freq (    3) =       0.229324 [THz] =       7.649416 [cm-1]
     freq (    4) =       1.105771 [THz] =      36.884558 [cm-1]
     freq (    5) =       1.115996 [THz] =      37.225614 [cm-1]
     freq (    6) =       2.996656 [THz] =      99.957686 [cm-1]
     freq (    7) =       4.807449 [THz] =     160.359230 [cm-1]
     freq (    8) =       4.810857 [THz] =     160.472914 [cm-1]
     freq (    9) =       4.923941 [THz] =     164.245001 [cm-1]
     freq (   10) =       5.636013 [THz] =     187.997155 [cm-1]
     freq (   11) =       5.744092 [THz] =     191.602295 [cm-1]
     freq (   12) =       6.454348 [THz] =     215.293861 [cm-1]

     Mode symmetry, C_1 (1)     point group:

     freq (   1-   1) =          5.6  [cm-1]   --> A
     freq (   2-   2) =          6.3  [cm-1]   --> A
     freq (   3-   3) =          7.6  [cm-1]   --> A
     freq (   4-   4) =         36.9  [cm-1]   --> A
     freq (   5-   5) =         37.2  [cm-1]   --> A
     freq (   6-   6) =        100.0  [cm-1]   --> A
     freq (   7-   7) =        160.4  [cm-1]   --> A
     freq (   8-   8) =        160.5  [cm-1]   --> A
     freq (   9-   9) =        164.2  [cm-1]   --> A
     freq (  10-  10) =        188.0  [cm-1]   --> A
     freq (  11-  11) =        191.6  [cm-1]   --> A
     freq (  12-  12) =        215.3  [cm-1]   --> A

     General routines

     Parallel routines

     INITIALIZATION:

     DYNAMICAL MATRIX:

      General routines

   This run was terminated on:  18:29:25  23Nov2021

   JOB DONE.
TACC:  Shutdown complete. Exiting.