     Program PHONON v.6.7MaX starts on 23Nov2021 at 13:15:32

     K-points division:     npool     =       8
     R & G space division:  proc/nbgrp/npool/nimage =      28
     Waiting for input...
     Reading input from standard input
      Title line not specified: using 'default'.

     Reading xml data from directory:

     ./inse.save/
     Message from routine read_pp_mesh:
     mesh size missing, using the one in header
     Message from routine read_pp_mesh:
     mesh size missing, using the one in header

     IMPORTANT: XC functional enforced from input :
     Exchange-correlation= PBE
                           (   1   4   3   4   0   0   0)
     Any further DFT definition will be discarded
     Please, verify this is what you really want

     Reading collected, re-writing distributed wavefunctions

     Calculation of q =    0.0000000   0.0000000   0.0000000

     default

     bravais-lattice index     =            4
     lattice parameter (alat)  =       7.7271  a.u.
     unit-cell volume          =    2383.8404 (a.u.)^3
     number of atoms/cell      =            4
     number of atomic types    =            2
     kinetic-energy cut-off    =      70.0000  Ry
     charge density cut-off    =     280.0000  Ry
     convergence threshold     =      1.0E-21
     beta                      =       0.7000
     number of iterations used =            4
     Exchange-correlation= PBE
                           (   1   4   3   4   0   0   0)

     celldm(1)=    7.72713  celldm(2)=    0.00000  celldm(3)=    5.96612
     celldm(4)=    0.00000  celldm(5)=    0.00000  celldm(6)=    0.00000

     crystal axes: (cart. coord. in units of alat)
               a(1) = (  1.0000  0.0000  0.0000 )
               a(2) = ( -0.5000  0.8660  0.0000 )
               a(3) = (  0.0000  0.0000  5.9661 )

     reciprocal axes: (cart. coord. in units 2 pi/alat)
               b(1) = (  1.0000  0.5774  0.0000 )
               b(2) = (  0.0000  1.1547  0.0000 )
               b(3) = (  0.0000  0.0000  0.1676 )

     Atoms inside the unit cell:

     Cartesian axes

     site n.  atom      mass           positions (alat units)
        1     In 114.8180   tau(    1) = (   -0.00000    0.57735    1.05734  )
        2     In 114.8180   tau(    2) = (   -0.00000    0.57735    1.74917  )
        3     Se  78.9600   tau(    3) = (    0.50000    0.28868    0.74527  )
        4     Se  78.9600   tau(    4) = (    0.50000    0.28868    2.06124  )

     Computing dynamical matrix for
                    q = (   0.0000000   0.0000000   0.0000000 )

      2 Sym.Ops. (with q -> -q+G )

     G cutoff =  423.4815  (   6752 G-vectors)     FFT grid: ( 45, 45,250)
     number of k points=    74
                       cart. coord. in units 2pi/alat
        k(    1) = (   0.0000000   0.0000000   0.0000000), wk =   0.0138889
        k(    2) = (   0.0000000   0.0962250   0.0000000), wk =   0.0277778
        k(    3) = (   0.0000000   0.1924501   0.0000000), wk =   0.0277778
        k(    4) = (   0.0000000   0.2886751   0.0000000), wk =   0.0277778
        k(    5) = (   0.0000000   0.3849002   0.0000000), wk =   0.0277778
        k(    6) = (   0.0000000   0.4811252   0.0000000), wk =   0.0277778
        k(    7) = (   0.0000000  -0.5773503   0.0000000), wk =   0.0138889
        k(    8) = (   0.0833333   0.0481125   0.0000000), wk =   0.0277778
        k(    9) = (   0.0833333   0.1443376   0.0000000), wk =   0.0277778
        k(   10) = (   0.0833333   0.2405626   0.0000000), wk =   0.0277778
        k(   11) = (   0.0833333   0.3367877   0.0000000), wk =   0.0277778
        k(   12) = (   0.0833333   0.4330127   0.0000000), wk =   0.0277778
        k(   13) = (   0.0833333   0.5292377   0.0000000), wk =   0.0277778
        k(   14) = (   0.0833333  -0.5292377   0.0000000), wk =   0.0277778
        k(   15) = (   0.0833333  -0.4330127   0.0000000), wk =   0.0277778
        k(   16) = (   0.0833333  -0.3367877   0.0000000), wk =   0.0277778
        k(   17) = (   0.0833333  -0.2405626   0.0000000), wk =   0.0277778
        k(   18) = (   0.0833333  -0.1443376   0.0000000), wk =   0.0277778
        k(   19) = (   0.0833333  -0.0481125   0.0000000), wk =   0.0277778
        k(   20) = (   0.1666667   0.0962250   0.0000000), wk =   0.0277778
        k(   21) = (   0.1666667   0.1924501   0.0000000), wk =   0.0277778
        k(   22) = (   0.1666667   0.2886751   0.0000000), wk =   0.0277778
        k(   23) = (   0.1666667   0.3849002   0.0000000), wk =   0.0277778
        k(   24) = (   0.1666667   0.4811252   0.0000000), wk =   0.0277778
        k(   25) = (   0.1666667   0.5773503   0.0000000), wk =   0.0277778
        k(   26) = (   0.1666667  -0.4811252   0.0000000), wk =   0.0277778
        k(   27) = (   0.1666667  -0.3849002   0.0000000), wk =   0.0277778
        k(   28) = (   0.1666667  -0.2886751   0.0000000), wk =   0.0277778
        k(   29) = (   0.1666667  -0.1924501   0.0000000), wk =   0.0277778
        k(   30) = (   0.1666667  -0.0962250   0.0000000), wk =   0.0277778
        k(   31) = (   0.1666667  -0.0000000   0.0000000), wk =   0.0277778
        k(   32) = (   0.2500000   0.1443376   0.0000000), wk =   0.0277778
        k(   33) = (   0.2500000   0.2405626   0.0000000), wk =   0.0277778
        k(   34) = (   0.2500000   0.3367877   0.0000000), wk =   0.0277778
        k(   35) = (   0.2500000   0.4330127   0.0000000), wk =   0.0277778
        k(   36) = (   0.2500000   0.5292377   0.0000000), wk =   0.0277778
        k(   37) = (   0.2500000   0.6254628   0.0000000), wk =   0.0277778
        k(   38) = (   0.2500000  -0.4330127   0.0000000), wk =   0.0277778
        k(   39) = (   0.2500000  -0.3367877   0.0000000), wk =   0.0277778
        k(   40) = (   0.2500000  -0.2405626   0.0000000), wk =   0.0277778
        k(   41) = (   0.2500000  -0.1443376   0.0000000), wk =   0.0277778
        k(   42) = (   0.2500000  -0.0481125   0.0000000), wk =   0.0277778
        k(   43) = (   0.2500000   0.0481125   0.0000000), wk =   0.0277778
        k(   44) = (   0.3333333   0.1924501   0.0000000), wk =   0.0277778
        k(   45) = (   0.3333333   0.2886751   0.0000000), wk =   0.0277778
        k(   46) = (   0.3333333   0.3849002   0.0000000), wk =   0.0277778
        k(   47) = (   0.3333333   0.4811252   0.0000000), wk =   0.0277778
        k(   48) = (   0.3333333   0.5773503   0.0000000), wk =   0.0277778
        k(   49) = (   0.3333333   0.6735753   0.0000000), wk =   0.0277778
        k(   50) = (   0.3333333  -0.3849002   0.0000000), wk =   0.0277778
        k(   51) = (   0.3333333  -0.2886751   0.0000000), wk =   0.0277778
        k(   52) = (   0.3333333  -0.1924501   0.0000000), wk =   0.0277778
        k(   53) = (   0.3333333  -0.0962250   0.0000000), wk =   0.0277778
        k(   54) = (   0.3333333   0.0000000   0.0000000), wk =   0.0277778
        k(   55) = (   0.3333333   0.0962250   0.0000000), wk =   0.0277778
        k(   56) = (   0.4166667   0.2405626   0.0000000), wk =   0.0277778
        k(   57) = (   0.4166667   0.3367877   0.0000000), wk =   0.0277778
        k(   58) = (   0.4166667   0.4330127   0.0000000), wk =   0.0277778
        k(   59) = (   0.4166667   0.5292377   0.0000000), wk =   0.0277778
        k(   60) = (   0.4166667   0.6254628   0.0000000), wk =   0.0277778
        k(   61) = (   0.4166667   0.7216878   0.0000000), wk =   0.0277778
        k(   62) = (   0.4166667  -0.3367877   0.0000000), wk =   0.0277778
        k(   63) = (   0.4166667  -0.2405626   0.0000000), wk =   0.0277778
        k(   64) = (   0.4166667  -0.1443376   0.0000000), wk =   0.0277778
        k(   65) = (   0.4166667  -0.0481125   0.0000000), wk =   0.0277778
        k(   66) = (   0.4166667   0.0481125   0.0000000), wk =   0.0277778
        k(   67) = (   0.4166667   0.1443376   0.0000000), wk =   0.0277778
        k(   68) = (  -0.5000000  -0.2886751   0.0000000), wk =   0.0138889
        k(   69) = (  -0.5000000  -0.1924501   0.0000000), wk =   0.0277778
        k(   70) = (  -0.5000000  -0.0962250   0.0000000), wk =   0.0277778
        k(   71) = (  -0.5000000   0.0000000   0.0000000), wk =   0.0277778
        k(   72) = (  -0.5000000   0.0962250   0.0000000), wk =   0.0277778
        k(   73) = (  -0.5000000   0.1924501   0.0000000), wk =   0.0277778
        k(   74) = (  -0.5000000  -0.8660254   0.0000000), wk =   0.0138889

     PseudoPot. # 1 for In read from file:
     ./In_ONCV_PBE-1.2.upf
     MD5 check sum: 2123f823f6143602c63cd302e3a0bdd6
     Pseudo is Norm-conserving, Zval = 13.0
     Generated using ONCVPSP code by D. R. Hamann
     Using radial grid of  602 points,  6 beta functions with:
                l(1) =   0
                l(2) =   0
                l(3) =   1
                l(4) =   1
                l(5) =   2
                l(6) =   2

     PseudoPot. # 2 for Se read from file:
     ./Se_ONCV_PBE-1.2.upf
     MD5 check sum: e78e48a4f5d8ce1f8dc76ec1271f249c
     Pseudo is Norm-conserving, Zval =  6.0
     Generated using ONCVPSP code by D. R. Hamann
     Using radial grid of  602 points,  6 beta functions with:
                l(1) =   0
                l(2) =   0
                l(3) =   1
                l(4) =   1
                l(5) =   2
                l(6) =   2

     Mode symmetry, C_1 (1)     point group:

     Electric field:
     Dielectric constant
     Born effective charges as d Force / d E

     Atomic displacements:
     There are   12 irreducible representations

     Representation     1      1 modes -  To be done

[...]

     Representation    12      1 modes -  To be done

     Alpha used in Ewald sum =   2.6000

     Electric Fields Calculation

      thresh= 1.000E-02 alpha_mix =  0.700 |ddv_scf|^2 =  4.099E-04

[...]

     End of electric fields calculation

          Dielectric constant in cartesian axis

          (       3.447177977      -0.000000002       0.000000017 )
          (      -0.000000002       3.447177988       0.000000017 )
          (       0.000000005       0.000000003       1.425135641 )

          Effective charges (d Force / dE) in cartesian axis

           atom      1   In
      Ex  (        2.46141        0.00000       -0.00000 )
      Ey  (        0.00000        2.46141       -0.00000 )
      Ez  (       -0.00000        0.00000        0.23902 )
           atom      2   In
      Ex  (        2.46141        0.00000       -0.00000 )
      Ey  (       -0.00000        2.46141       -0.00000 )
      Ez  (       -0.00000        0.00000        0.23902 )
           atom      3   Se
      Ex  (       -2.46245       -0.00000       -0.00000 )
      Ey  (       -0.00000       -2.46245       -0.00000 )
      Ez  (       -0.00000        0.00000       -0.23869 )
           atom      4   Se
      Ex  (       -2.46246       -0.00000       -0.00000 )
      Ey  (       -0.00000       -2.46246       -0.00000 )
      Ez  (       -0.00000       -0.00000       -0.23867 )

     Calling punch_plot_e
     Writing on file  drho

     Representation #   1 mode #   1

     Self-consistent Calculation

[...]

     End of self-consistent calculation

     Convergence has been achieved

[...]

     Representation #  12 mode #  12

     Self-consistent Calculation

[...]

      thresh= 5.631E-12 alpha_mix =  0.700 |ddv_scf|^2 =  6.595E-23

     End of self-consistent calculation

     Convergence has been achieved

     Number of q in the star =    1
     List of q in the star:
          1   0.000000000   0.000000000   0.000000000

          Dielectric constant in cartesian axis

          (       3.447177977      -0.000000002       0.000000017 )
          (      -0.000000002       3.447177988       0.000000017 )
          (       0.000000005       0.000000003       1.425135641 )

          Effective charges (d Force / dE) in cartesian axis

           atom      1   In
      Ex  (        2.46141        0.00000       -0.00000 )
      Ey  (        0.00000        2.46141       -0.00000 )
      Ez  (       -0.00000        0.00000        0.23902 )
           atom      2   In
      Ex  (        2.46141        0.00000       -0.00000 )
      Ey  (       -0.00000        2.46141       -0.00000 )
      Ez  (       -0.00000        0.00000        0.23902 )
           atom      3   Se
      Ex  (       -2.46245       -0.00000       -0.00000 )
      Ey  (       -0.00000       -2.46245       -0.00000 )
      Ez  (       -0.00000        0.00000       -0.23869 )
           atom      4   Se
      Ex  (       -2.46246       -0.00000       -0.00000 )
      Ey  (       -0.00000       -2.46246       -0.00000 )
      Ez  (       -0.00000       -0.00000       -0.23867 )

     Diagonalizing the dynamical matrix

     q = (    0.000000000   0.000000000   0.000000000 )

     freq (    1) =       0.162073 [THz] =       5.406172 [cm-1]
     freq (    2) =       0.162464 [THz] =       5.419205 [cm-1]
     freq (    3) =       0.167619 [THz] =       5.591157 [cm-1]
     freq (    4) =       1.101155 [THz] =      36.730582 [cm-1]
     freq (    5) =       1.101212 [THz] =      36.732469 [cm-1]
     freq (    6) =       2.997701 [THz] =      99.992543 [cm-1]
     freq (    7) =       4.810914 [THz] =     160.474829 [cm-1]
     freq (    8) =       4.810923 [THz] =     160.475125 [cm-1]
     freq (    9) =       4.923998 [THz] =     164.246879 [cm-1]
     freq (   10) =       4.924013 [THz] =     164.247384 [cm-1]
     freq (   11) =       5.645536 [THz] =     188.314801 [cm-1]
     freq (   12) =       6.456268 [THz] =     215.357908 [cm-1]

     Mode symmetry, C_1 (1)     point group:

     freq (   1-   1) =          5.4  [cm-1]   --> A               I+R
     freq (   2-   2) =          5.4  [cm-1]   --> A               I+R
     freq (   3-   3) =          5.6  [cm-1]   --> A               I+R
     freq (   4-   4) =         36.7  [cm-1]   --> A               I+R
     freq (   5-   5) =         36.7  [cm-1]   --> A               I+R
     freq (   6-   6) =        100.0  [cm-1]   --> A               I+R
     freq (   7-   7) =        160.5  [cm-1]   --> A               I+R
     freq (   8-   8) =        160.5  [cm-1]   --> A               I+R
     freq (   9-   9) =        164.2  [cm-1]   --> A               I+R
     freq (  10-  10) =        164.2  [cm-1]   --> A               I+R
     freq (  11-  11) =        188.3  [cm-1]   --> A               I+R
     freq (  12-  12) =        215.4  [cm-1]   --> A               I+R

     INITIALIZATION:

     DIELECTRIC CONSTANT AND EFFECTIVE CHARGES:

     DYNAMICAL MATRIX:

      General routines

   This run was terminated on:  13:27:35  23Nov2021

   JOB DONE.
TACC:  Shutdown complete. Exiting.