     Program PHONON v.6.7MaX starts on  3Nov2021 at  4: 3:32

     K-points division:     npool     =       8
     R & G space division:  proc/nbgrp/npool/nimage =      28
     Waiting for input...
     Reading input from standard input
      Title line not specified: using 'default'.

     Reading xml data from directory:

     ./mos2.save/
     Message from routine read_pp_mesh:
     mesh size missing, using the one in header
     Message from routine read_pp_mesh:
     mesh size missing, using the one in header

     IMPORTANT: XC functional enforced from input :
     Exchange-correlation= PBE
                           (   1   4   3   4   0   0   0)
     Any further DFT definition will be discarded
     Please, verify this is what you really want

     Reading collected, re-writing distributed wavefunctions

     Calculation of q =    0.0000000   0.0200000   0.0100000

     Subspace diagonalization in iterative solution of the eigenvalue problem:
     a serial algorithm will be used

     Title:
     default

     bravais-lattice index     =            4
     lattice parameter (alat)  =       6.0189  a.u.
     unit-cell volume          =    1185.7697 (a.u.)^3
     number of atoms/cell      =            3
     number of atomic types    =            2
     number of electrons       =        26.00
     number of Kohn-Sham states=           13
     kinetic-energy cutoff     =      90.0000  Ry
     charge density cutoff     =     360.0000  Ry
     Exchange-correlation= PBE
                           (   1   4   3   4   0   0   0)

     celldm(1)=   6.018946  celldm(2)=   0.000000  celldm(3)=   6.279260
     celldm(4)=   0.000000  celldm(5)=   0.000000  celldm(6)=   0.000000

     crystal axes: (cart. coord. in units of alat)
               a(1) = (   1.000000   0.000000   0.000000 )
               a(2) = (  -0.500000   0.866025   0.000000 )
               a(3) = (   0.000000   0.000000   6.279260 )

     reciprocal axes: (cart. coord. in units 2 pi/alat)
               b(1) = (  1.000000  0.577350  0.000000 )
               b(2) = (  0.000000  1.154701  0.000000 )
               b(3) = (  0.000000  0.000000  0.159254 )

     PseudoPot. # 1 for Mo read from file:
     ./Mo_ONCV_PBE-1.2.upf
     MD5 check sum: 2665c9f4159700498d9a5f7573bd8e9f
     Pseudo is Norm-conserving, Zval = 14.0
     Generated using ONCVPSP code by D. R. Hamann
     Using radial grid of  602 points,  6 beta functions with:
                l(1) =   0
                l(2) =   0
                l(3) =   1
                l(4) =   1
                l(5) =   2
                l(6) =   2

     PseudoPot. # 2 for S  read from file:
     ./S_ONCV_PBE-1.2.upf
     MD5 check sum: f9d020296ee6110346977bfd66d424f6
     Pseudo is Norm-conserving, Zval =  6.0
     Generated using ONCVPSP code by D. R. Hamann
     Using radial grid of  602 points,  4 beta functions with:
                l(1) =   0
                l(2) =   0
                l(3) =   1
                l(4) =   1

     atomic species   valence    mass     pseudopotential
        Mo            14.00    95.95000     Mo( 1.00)
        S              6.00    32.06000     S ( 1.00)

     No symmetry found

   Cartesian axes

     site n.     atom                  positions (alat units)
         1           Mo  tau(   1) = (   0.0000000   0.0000000   0.6279260  )
         2           S   tau(   2) = (  -0.0000000   0.5773503   0.1368723  )
         3           S   tau(   3) = (  -0.0000000   0.5773503   1.1189797  )

     number of k points=   288

     Number of k-points >= 100: set verbosity='high' to print them.

     The potential is recalculated from file :
     ./_ph0/mos2.save/charge-density

     Starting wfcs are    0 atomic +   13 random wfcs

     Band Structure Calculation
     Davidson diagonalization with overlap

     ethr =  3.85E-11,  avg # of iterations = 32.6

     End of band structure calculation

     Number of k-points >= 100: set verbosity='high' to print the bands.

     highest occupied level (ev):    -0.9860

     Writing output data file ./_ph0/mos2.save/

     default

     bravais-lattice index     =            4
     lattice parameter (alat)  =       6.0189  a.u.
     unit-cell volume          =    1185.7697 (a.u.)^3
     number of atoms/cell      =            3
     number of atomic types    =            2
     kinetic-energy cut-off    =      90.0000  Ry
     charge density cut-off    =     360.0000  Ry
     convergence threshold     =      1.0E-21
     beta                      =       0.7000
     number of iterations used =            4
     Exchange-correlation= PBE
                           (   1   4   3   4   0   0   0)

     celldm(1)=    6.01895  celldm(2)=    0.00000  celldm(3)=    6.27926
     celldm(4)=    0.00000  celldm(5)=    0.00000  celldm(6)=    0.00000

     crystal axes: (cart. coord. in units of alat)
               a(1) = (  1.0000  0.0000  0.0000 )
               a(2) = ( -0.5000  0.8660  0.0000 )
               a(3) = (  0.0000  0.0000  6.2793 )

     reciprocal axes: (cart. coord. in units 2 pi/alat)
               b(1) = (  1.0000  0.5774  0.0000 )
               b(2) = (  0.0000  1.1547  0.0000 )
               b(3) = (  0.0000  0.0000  0.1593 )

     Atoms inside the unit cell:

     Cartesian axes

     site n.  atom      mass           positions (alat units)
        1     Mo  95.9500   tau(    1) = (    0.00000    0.00000    0.62793  )
        2     S   32.0600   tau(    2) = (   -0.00000    0.57735    0.13687  )
        3     S   32.0600   tau(    3) = (   -0.00000    0.57735    1.11898  )

     Computing dynamical matrix for
                    q = (   0.0000000   0.0200000   0.0100000 )

     No symmetry!

     G cutoff =  330.3571  (   4884 G-vectors)     FFT grid: ( 40, 40,240)
     number of k points=   288

     PseudoPot. # 1 for Mo read from file:
     ./Mo_ONCV_PBE-1.2.upf
     MD5 check sum: 2665c9f4159700498d9a5f7573bd8e9f
     Pseudo is Norm-conserving, Zval = 14.0
     Generated using ONCVPSP code by D. R. Hamann
     Using radial grid of  602 points,  6 beta functions with:
                l(1) =   0
                l(2) =   0
                l(3) =   1
                l(4) =   1
                l(5) =   2
                l(6) =   2

     PseudoPot. # 2 for S  read from file:
     ./S_ONCV_PBE-1.2.upf
     MD5 check sum: f9d020296ee6110346977bfd66d424f6
     Pseudo is Norm-conserving, Zval =  6.0
     Generated using ONCVPSP code by D. R. Hamann
     Using radial grid of  602 points,  4 beta functions with:
                l(1) =   0
                l(2) =   0
                l(3) =   1
                l(4) =   1

     Mode symmetry, C_1 (1)     point group:

     Atomic displacements:
     There are    9 irreducible representations

     Representation     1      1 modes -  To be done

[...]

     Representation     9      1 modes -  To be done

     Alpha used in Ewald sum =   2.8000

     Representation #   1 mode #   1

     Self-consistent Calculation

      thresh= 1.000E-02 alpha_mix =  0.700 |ddv_scf|^2 =  5.434E-07

[...]

     End of self-consistent calculation

     Convergence has been achieved

[...]

     Representation #   9 mode #   9

     Self-consistent Calculation

[...]

      thresh= 5.720E-12 alpha_mix =  0.700 |ddv_scf|^2 =  9.742E-23

     End of self-consistent calculation

     Convergence has been achieved

     Number of q in the star =    1
     List of q in the star:
          1   0.000000000   0.020000000   0.010000000
     In addition there is the -q list:
          1   0.000000000  -0.020000000  -0.010000000

          Effective charges (d P / du) in cartesian axis

           atom      1   Mo
      Px  (    -0.00000    -0.00000    -0.00026     0.00430     0.00000     0.00022 )
      Py  (     0.00000     0.00000     0.00000     0.00000     0.00000     0.00000 )
      Pz  (     0.00000     0.00000     0.00000     0.00000     0.00000     0.00000 )
           atom      2   S
      Px  (     0.00000    -0.00000    -0.00007    -0.00227    -0.00030    -0.00015 )
      Py  (     0.00000     0.00000     0.00000     0.00000     0.00000     0.00000 )
      Pz  (     0.00000     0.00000     0.00000     0.00000     0.00000     0.00000 )
           atom      3   S
      Px  (    -0.00000    -0.00000     0.00004    -0.00227     0.00030    -0.00015 )
      Py  (     0.00000     0.00000     0.00000     0.00000     0.00000     0.00000 )
      Pz  (     0.00000     0.00000     0.00000     0.00000     0.00000     0.00000 )

     Diagonalizing the dynamical matrix

     q = (    0.000000000   0.020000000   0.010000000 )

     freq (    1) =       0.200435 [THz] =       6.685780 [cm-1]
     freq (    2) =       0.288408 [THz] =       9.620256 [cm-1]
     freq (    3) =       0.434590 [THz] =      14.496366 [cm-1]
     freq (    4) =       8.292242 [THz] =     276.599410 [cm-1]
     freq (    5) =       8.299304 [THz] =     276.834992 [cm-1]
     freq (    6) =      11.191214 [THz] =     373.298705 [cm-1]
     freq (    7) =      11.236585 [THz] =     374.812119 [cm-1]
     freq (    8) =      11.888473 [THz] =     396.556766 [cm-1]
     freq (    9) =      13.738225 [THz] =     458.257843 [cm-1]

     Mode symmetry, C_1 (1)     point group:

     freq (   1-   1) =          6.7  [cm-1]   --> A
     freq (   2-   2) =          9.6  [cm-1]   --> A
     freq (   3-   3) =         14.5  [cm-1]   --> A
     freq (   4-   4) =        276.6  [cm-1]   --> A
     freq (   5-   5) =        276.8  [cm-1]   --> A
     freq (   6-   6) =        373.3  [cm-1]   --> A
     freq (   7-   7) =        374.8  [cm-1]   --> A
     freq (   8-   8) =        396.6  [cm-1]   --> A
     freq (   9-   9) =        458.3  [cm-1]   --> A

     General routines

     Parallel routines

     INITIALIZATION:

     DYNAMICAL MATRIX:

      General routines

   This run was terminated on:   4:11: 9   3Nov2021

   JOB DONE.
TACC:  Shutdown complete. Exiting.